c ren 1 -> 1
c ren 2 -> 2
c ren 3 -> 3
c ren 4 -> 4
c ren 5 -> 5
c ren 6 -> 6
c ren 7 -> 7
c ren 8 -> 8
c ren 9 -> 9
c ren 10 -> 10
c ren 11 -> 11
c ren 12 -> 12
c ren 13 -> 13
c ren 14 -> 14
c ren 15 -> 15
c ren 16 -> 16
c ren 17 -> 17
c ren 18 -> 18
c ren 19 -> 19
c ren 20 -> 20
c ren 21 -> 21
c ren 22 -> 22
c ren 23 -> 23
c ren 24 -> 24
c ren 25 -> 25
c ren 26 -> 26
c ren 27 -> 27
c ren 28 -> 28
c ren 29 -> 29
c ren 30 -> 30
c ren 31 -> 31
c ren 32 -> 32
c ren 60 -> 33
c ren 84 -> 34
c ren 88 -> 35
c ren 112 -> 36
c ren 120 -> 37
c ren 153 -> 38
c ren 157 -> 39
c ren 162 -> 40
c ren 166 -> 41
c ren 168 -> 42
c ren 169 -> 43
c ren 170 -> 44
c ren 171 -> 45
c ren 172 -> 46
c ren 173 -> 47
c ren 176 -> 48
c ren 177 -> 49
c ren 178 -> 50
c ren 179 -> 51
c ren 180 -> 52
c ren 181 -> 53
c ren 182 -> 54
c ren 183 -> 55
c ren 184 -> 56
c ren 185 -> 57
c ren 186 -> 58
c ren 187 -> 59
c ren 188 -> 60
c ren 189 -> 61
c ren 190 -> 62
c ren 191 -> 63
c ren 192 -> 64
c ren 193 -> 65
c ren 194 -> 66
c ren 195 -> 67
c ren 196 -> 68
c ren 197 -> 69
c ren 198 -> 70
c ren 199 -> 71
c ren 200 -> 72
c ren 201 -> 73
c ren 202 -> 74
c ren 258 -> 75
c ren 267 -> 76
c ren 290 -> 77
c ren 291 -> 78
c ren 292 -> 79
c ren 293 -> 80
c ren 294 -> 81
c ren 295 -> 82
c ren 296 -> 83
c ren 297 -> 84
c ren 298 -> 85
c ren 299 -> 86
c ren 300 -> 87
c ren 301 -> 88
c ren 302 -> 89
c ren 303 -> 90
c ren 304 -> 91
c ren 305 -> 92
c ren 306 -> 93
c ren 307 -> 94
c ren 308 -> 95
c ren 309 -> 96
c ren 310 -> 97
c ren 311 -> 98
c ren 312 -> 99
c ren 313 -> 100
c ren 314 -> 101
p cnf 101 408
a 1 2 3 4 5 6 7 8 9 10 11 12 13 14 15 16 17 18 19 20 21 22 23 24 25 26 27 28 29 30 31 32 48 49 50 51 52 53 54 55 56 57 58 59 60 61 62 63 64 65 66 67 68 69 70 71 72 73 74 0
d 42 54 55 56 57 58 59 60 61 62 63 0
d 43 54 55 56 57 58 59 60 61 62 63 0
d 44 52 53 0
d 45 48 49 0
d 46 50 51 0
d 47 64 65 66 67 68 69 70 71 72 73 74 0
e 33 34 35 36 37 38 39 40 41 75 76 77 78 79 80 81 82 83 84 85 86 87 88 89 90 91 92 93 94 95 96 97 98 99 100 101 0
9 -25 -57 -87 0
-9 25 -57 -87 0
9 12 -26 -27 38 0
11 12 -25 -26 38 0
9 10 11 -27 33 0
9 -25 38 0
9 -26 -27 -28 38 0
10 11 -25 -27 33 0
10 12 -25 -27 -28 33 0
9 10 11 -27 38 0
10 -11 12 25 26 -27 28 -33 0
-10 -11 25 27 -38 0
9 11 -26 -27 33 0
-10 25 26 -38 0
9 25 57 -87 0
-25 -26 -27 -28 38 0
-10 -11 12 25 -26 -27 28 -33 0
9 10 -26 38 0
9 10 11 12 -28 33 0
-10 11 -12 25 -26 27 -28 -33 0
10 11 -12 25 26 27 -28 -33 0
9 11 -26 -27 38 0
-9 25 -38 0
10 11 12 25 26 27 28 -33 0
11 -25 -26 -28 38 0
9 11 12 -26 -28 33 0
11 12 -25 -26 -28 33 0
9 10 12 -27 38 0
-12 25 26 27 28 -38 0
-10 11 12 25 -26 27 28 -33 0
9 10 -26 33 0
9 12 -26 -27 -28 33 0
9 -25 33 0
9 10 12 -27 -28 33 0
-10 -11 -12 25 -26 -27 -28 -33 0
10 -25 -26 38 0
11 -25 -26 -27 38 0
9 10 -27 -28 38 0
10 11 -25 -28 38 0
10 11 -25 -27 38 0
9 11 12 -26 38 0
10 11 12 -25 38 0
-10 -12 25 27 28 -38 0
9 10 11 -28 38 0
-11 -12 25 26 28 -38 0
-9 25 -33 0
12 -25 -26 -27 38 0
-10 -11 -12 25 28 -38 0
11 -25 -26 -27 33 0
10 12 -25 -27 38 0
10 -25 -27 -28 38 0
10 11 12 -25 -28 33 0
12 -25 -26 -27 -28 33 0
9 10 11 12 38 0
-9 -25 57 -87 0
-13 29 33 -35 37 40 0
6 8 -21 -23 -34 0
7 -23 -35 0
-6 -7 21 23 34 0
5 6 -22 -34 0
-5 6 -7 -8 -21 22 -23 -24 35 0
-6 -8 21 23 24 34 0
6 -22 -35 0
5 -6 7 -8 21 -22 23 -24 35 0
5 -6 -7 -8 21 -22 -23 -24 35 0
5 6 7 -8 21 22 23 -24 35 0
5 -21 -35 0
-9 -10 11 -12 -26 27 -28 -33 0
-7 21 22 23 34 0
-8 21 22 23 24 34 0
-2 4 17 19 20 -37 0
6 7 -21 -23 -34 0
-8 24 -35 0
5 6 7 -24 -34 0
-7 23 -35 0
5 6 -7 8 21 22 -23 24 35 0
-6 22 -35 0
5 7 -22 -24 -34 0
-5 21 34 0
5 -6 -7 8 21 -22 -23 24 35 0
-7 -8 21 22 24 34 0
5 7 -22 -23 -34 0
-6 21 22 34 0
5 8 -22 -23 -34 0
-5 -7 22 23 34 0
6 -21 -23 -24 -34 0
-21 -22 -23 -24 -34 0
5 6 7 -23 -34 0
-5 21 -35 0
6 -21 -22 -34 0
8 -21 -22 -23 -34 0
5 7 8 -22 -34 0
7 -21 -22 -24 -34 0
8 -24 -35 0
-5 6 7 -8 -21 22 23 -24 35 0
5 6 -7 -8 21 22 -23 -24 35 0
-5 -6 -8 23 24 34 0
-5 -6 7 -8 -21 -22 23 -24 35 0
-6 -7 -8 21 24 34 0
5 6 7 8 21 22 23 24 35 0
5 -22 -23 -24 -34 0
1 3 -18 -19 39 0
35 -40 -76 -77 0
-13 -14 15 -16 -29 -30 31 -32 33 34 -35 37 -38 -39 41 0
2 4 -17 36 39 0
-13 -14 -15 16 -29 -30 -31 32 33 34 -35 37 -38 -39 41 0
1 4 -18 -20 36 -46 75 0
1 2 36 -45 75 0
-1 -2 -4 19 -20 -37 0
1 -17 75 0
-4 17 18 -20 45 -75 0
-19 -36 0
1 -3 -18 19 36 39 0
-1 4 18 19 20 -37 0
2 -18 -36 0
-1 -3 -4 18 -20 -37 0
-1 -4 18 19 -20 -37 0
-1 -2 18 -37 0
1 -17 -36 0
1 -17 37 0
-1 -2 18 -39 0
-17 -18 36 -45 75 0
-1 -2 -3 -4 20 -39 0
-1 -2 45 46 -76 0
2 3 -17 -19 39 0
1 2 3 -19 39 0
-1 17 -76 0
1 3 -18 -19 37 0
-1 4 18 20 45 -75 0
-1 -4 18 19 20 -39 0
1 -17 39 0
-1 -2 -4 -20 45 -75 0
2 -3 -17 19 36 39 0
-2 17 18 -76 0
1 2 36 -45 76 0
1 2 4 -20 36 -46 75 0
-1 -2 4 19 20 -37 0
-1 -2 18 -76 0
1 2 36 -46 76 0
1 -3 -18 19 36 37 0
3 -36 0
-1 -2 4 20 45 -75 0
1 -18 -20 36 39 0
1 -2 -3 17 -18 19 36 0
-17 -18 36 -46 76 0
-1 -2 -3 -4 -20 -37 0
-4 -17 -18 20 36 -46 75 0
-3 -4 17 18 -20 -37 0
-1 -2 -4 19 20 -39 0
-4 17 18 19 20 -39 0
-36 -37 0
1 -4 -18 20 36 -46 75 0
-36 -39 0
1 2 -4 20 36 -46 75 0
-37 -39 -40 0
-15 29 30 31 33 -35 37 40 0
1 2 -18 39 0
4 -17 -18 -20 36 -46 75 0
-15 -31 64 -94 0
13 -14 15 16 29 -30 31 32 33 34 -35 37 -38 -39 41 0
15 -29 -30 -31 34 -38 -39 -40 0
14 -30 -65 -95 0
3 -17 -18 -19 37 0
15 16 -30 -32 -41 0
2 -17 -18 37 0
34 -35 40 75 -77 0
13 14 -15 -16 29 30 -31 -32 33 34 -35 37 -38 -39 41 0
16 -29 -30 -31 34 -38 -39 -40 0
13 -29 -41 0
-9 -11 26 27 -38 0
-13 -14 -15 -16 -29 -30 -31 -32 33 34 -35 37 -38 -39 41 0
13 15 16 -30 34 -38 -39 -40 0
-9 -10 -11 27 -38 0
13 14 -30 34 -38 -39 -40 0
-15 31 -64 -94 0
13 14 15 -31 34 -38 -39 -40 0
13 14 16 -31 34 -38 -39 -40 0
-13 29 -66 -96 0
15 16 -29 -30 34 -38 -39 -40 0
-13 -14 15 16 -29 -30 31 32 33 34 -35 37 -38 -39 41 0
-13 -14 -15 31 33 -35 37 40 0
13 -14 -15 16 29 -30 -31 32 33 34 -35 37 -38 -39 41 0
-5 -6 7 8 -21 -22 23 24 35 0
14 -30 -41 0
-15 29 31 -41 0
4 -17 -18 -20 36 37 0
14 16 -31 -32 -41 0
-14 -15 -16 29 32 33 -35 37 40 0
14 16 -29 -31 34 -38 -39 -40 0
-16 32 -41 0
-14 -15 29 31 33 -35 37 40 0
-14 -30 65 -95 0
13 14 15 -32 34 -38 -39 -40 0
-13 14 15 -16 -29 30 31 -32 33 34 -35 37 -38 -39 41 0
15 -31 -64 -94 0
-9 10 -11 12 26 -27 28 -33 0
-13 -15 -16 30 32 33 -35 37 40 0
13 14 15 -16 29 30 31 -32 33 34 -35 37 -38 -39 41 0
-14 -16 29 31 32 33 -35 37 40 0
14 15 -31 -41 0
-13 14 -15 -16 -29 30 -31 -32 33 34 -35 37 -38 -39 41 0
-13 -15 30 31 33 -35 37 40 0
-33 34 -38 -39 -40 0
14 15 -29 -32 34 -38 -39 -40 0
2 -17 -18 75 0
-13 29 -41 0
34 -35 41 -42 -43 47 75 -76 -77 0
13 -14 15 -16 29 -30 31 -32 33 34 -35 37 -38 -39 41 0
-9 -11 -12 26 28 -38 0
9 11 -26 -28 38 0
13 -29 34 -38 -39 -40 0
4 17 18 20 45 -75 0
1 2 -3 17 18 19 36 0
1 -18 36 -46 76 0
-5 -6 -7 -8 -21 -22 -23 -24 35 0
13 29 66 -96 0
-13 -16 30 31 32 33 -35 37 40 0
14 -29 -31 -32 34 -38 -39 -40 0
-9 10 -11 -12 26 -27 -28 -33 0
14 15 16 -32 -41 0
13 14 15 16 34 -38 -39 -40 0
-9 -10 26 -38 0
13 14 15 16 29 30 31 32 33 34 -35 37 -38 -39 41 0
15 -30 -31 -41 0
39 40 0
15 -29 -30 -32 34 -38 -39 -40 0
13 -30 -31 -32 34 -38 -39 -40 0
13 15 -30 -31 34 -38 -39 -40 0
-34 37 40 0
-13 -14 -16 31 32 33 -35 37 40 0
13 14 -31 -32 34 -38 -39 -40 0
13 -14 -15 -16 29 -30 -31 -32 33 34 -35 37 -38 -39 41 0
-13 -29 66 -96 0
-5 -6 -7 -8 24 34 0
35 -41 0
-33 -41 0
38 -41 0
34 35 -39 -40 0
39 -41 0
-14 30 -65 -95 0
16 -30 -31 -32 -41 0
1 2 -3 19 36 39 0
-13 -14 30 33 -35 37 40 0
-34 -40 -76 -77 0
-37 -41 0
5 6 -23 -24 -34 0
5 -21 -34 0
5 6 7 8 -34 0
5 -6 7 8 21 -22 23 24 35 0
6 7 8 -21 -34 0
-13 14 15 16 -29 30 31 32 33 34 -35 37 -38 -39 41 0
-5 -7 -8 22 24 34 0
-4 17 18 19 -20 -37 0
6 7 -21 -24 -34 0
5 6 8 -23 -34 0
-2 4 17 20 45 -75 0
-41 -75 -77 0
-9 10 11 12 26 27 28 -33 0
7 -21 -22 -23 -34 0
-5 -6 22 34 0
-5 6 7 8 -21 22 23 24 35 0
-5 -8 22 23 24 34 0
-5 -6 -7 23 34 0
7 8 -21 -22 -34 0
-5 6 -7 8 -21 22 -23 24 35 0
-2 -4 17 -20 45 -75 0
4 17 18 19 20 -37 0
-2 17 45 46 -76 0
1 2 3 -19 37 0
1 2 -3 19 36 37 0
-2 17 18 -39 0
2 -17 36 -45 76 0
-3 4 17 18 20 -37 0
-3 -4 17 18 20 -39 0
1 2 4 36 39 0
1 2 -20 36 39 0
-29 -30 -31 -32 34 -38 -39 -40 0
1 2 4 -20 36 37 0
2 3 -17 -19 37 0
2 -17 -18 39 0
1 2 -18 76 0
4 -17 -18 36 39 0
-2 -3 -4 17 -20 -37 0
-1 -3 -4 18 20 -39 0
-1 -3 4 18 20 -37 0
17 18 45 46 -76 0
1 2 -18 37 0
-2 17 18 -37 0
1 -18 36 -45 76 0
-2 17 18 -75 0
1 4 -18 36 39 0
-1 18 45 46 -76 0
-1 -4 18 -20 45 -75 0
-1 -2 18 -75 0
-1 17 -37 0
1 -17 76 0
-1 -2 -3 4 20 -37 0
-1 17 -75 0
-36 -75 0
-9 -10 -12 27 28 -38 0
-36 -76 0
-9 -10 11 12 -26 27 28 -33 0
-34 -41 0
-13 -14 -15 -16 32 33 -35 37 40 0
-41 -42 43 -77 0
2 -4 -17 20 36 -46 75 0
-41 76 -77 0
1 -18 36 -45 75 0
-1 17 -39 0
-2 -4 17 19 20 -39 0
13 14 -15 16 29 30 -31 32 33 34 -35 37 -38 -39 41 0
-3 -17 -18 19 36 37 0
-40 -75 -76 -77 0
3 -17 -18 -19 39 0
-9 -10 -11 12 -26 -27 28 -33 0
1 2 -18 75 0
34 -35 41 42 43 47 75 -76 -77 0
-41 42 -43 -77 0
-9 -10 -11 -12 -26 -27 -28 -33 0
-41 -47 -77 0
-2 -3 -4 17 20 -39 0
-2 -4 17 19 -20 -37 0
-9 -12 26 27 28 -38 0
10 -25 -26 33 0
10 -11 -12 25 26 -27 -28 -33 0
2 -17 36 -45 75 0
-13 -15 31 -41 0
-5 -6 -7 8 -21 -22 -23 24 35 0
-14 29 30 -41 0
-17 -18 -20 36 39 0
-13 -14 30 -41 0
1 4 -18 -20 36 37 0
13 -29 -66 -96 0
-9 10 11 -12 26 27 -28 -33 0
-9 -10 -11 -12 28 -38 0
40 76 -77 0
2 -17 36 -46 76 0
-2 -3 4 17 20 -37 0
-13 14 -15 16 -29 30 -31 32 33 34 -35 37 -38 -39 41 0
-3 -48 -78 0
3 48 -78 0
-19 -49 -79 0
19 49 -79 0
-4 -50 -80 0
4 50 -80 0
-20 -51 -81 0
20 51 -81 0
-10 -52 -82 0
-1 -2 -3 -17 -18 19 36 0
10 52 -82 0
-26 -53 -83 0
2 4 -17 -20 36 -46 75 0
26 53 -83 0
-11 -54 -84 0
11 54 -84 0
-27 -55 -85 0
27 55 -85 0
-44 -56 -86 0
2 -3 -17 19 36 37 0
44 56 -86 0
-11 25 26 27 -38 0
-12 -58 -88 0
-3 -17 -18 19 36 39 0
12 58 -88 0
-28 -59 -89 0
2 4 -17 -20 36 37 0
28 59 -89 0
-10 -60 -90 0
10 60 -90 0
-26 -61 -91 0
26 61 -91 0
-9 -62 -92 0
-17 -18 36 -45 76 0
9 62 -92 0
-25 -63 -93 0
25 63 -93 0
15 31 64 -94 0
-15 -16 29 30 32 33 -35 37 40 0
2 -17 -18 76 0
14 15 16 -29 34 -38 -39 -40 0
13 16 -30 -31 34 -38 -39 -40 0
14 15 -29 -31 34 -38 -39 -40 0
14 30 65 -95 0
34 -35 37 38 40 0
13 15 -30 -32 34 -38 -39 -40 0
-16 29 30 31 32 33 -35 37 40 0
14 -29 -30 34 -38 -39 -40 0
-16 -67 -97 0
16 67 -97 0
-32 -68 -98 0
32 68 -98 0
-15 -69 -99 0
15 69 -99 0
-31 -70 -100 0
-1 2 -3 -17 18 19 36 0
31 70 -100 0
-14 -71 -101 0
2 -17 -20 36 39 0
14 71 -101 0
-13 29 -30 -72 -73 74 77 78 79 80 81 82 83 84 85 86 87 88 89 90 91 92 93 94 95 96 97 98 99 100 101 0
13 29 30 72 73 74 77 78 79 80 81 82 83 84 85 86 87 88 89 90 91 92 93 94 95 96 97 98 99 100 101 0
13 -29 -30 -72 73 -74 77 78 79 80 81 82 83 84 85 86 87 88 89 90 91 92 93 94 95 96 97 98 99 100 101 0
-13 -29 -30 -72 -73 -74 77 78 79 80 81 82 83 84 85 86 87 88 89 90 91 92 93 94 95 96 97 98 99 100 101 0
-13 -29 30 72 -73 -74 77 78 79 80 81 82 83 84 85 86 87 88 89 90 91 92 93 94 95 96 97 98 99 100 101 0
-13 29 30 72 -73 74 77 78 79 80 81 82 83 84 85 86 87 88 89 90 91 92 93 94 95 96 97 98 99 100 101 0
13 29 -30 -72 73 74 77 78 79 80 81 82 83 84 85 86 87 88 89 90 91 92 93 94 95 96 97 98 99 100 101 0
-14 29 30 33 -35 37 40 0
13 -29 30 72 73 -74 77 78 79 80 81 82 83 84 85 86 87 88 89 90 91 92 93 94 95 96 97 98 99 100 101 0
